Maximize
F - f1 - f2

Subject to
F - 15.0y81 - 20.0y196 - 15.0y143 - 15.0y198 - 15.0y69 - 15.0y259 - 15.0y109 - 10.0y162 - 20.0y266 - 10.0y230 - 10.0y277 - 5.0y31 - 15.0y209 - 10.0y239 - 10.0y29 - 10.0y170 - 15.0y172 - 20.0y270 - 5.0y267 - 15.0y54 = 0
f1 - 0.005864s81 - 0.005864s196 - 0.005864s143 - 0.005864s198 - 0.005864s69 - 0.005864s259 - 0.005864s109 - 0.005864s162 - 0.005864s266 - 0.005864s230 - 0.005864s277 - 0.005864s31 - 0.005864s209 - 0.005864s239 - 0.005864s29 - 0.005864s170 - 0.005864s172 - 0.005864s270 - 0.005864s267 - 0.005864s54  = 0
f2 - 0.23y81 - 0.18y196 - 0.12y143 - 2.03y198 - 0.08y69 - 0.87y259 - 1.84y109 - 0.76y162 - 1.30y266 - 1.01y230 - 0.04y277 - 0.23y31 - 0.35y209 - 0.20y239 - 0.30y29 - 1.31y170 - 1.08y172 - 0.24y270 - 0.60y267 - 0.33y54 = 0

x243x81x1 + x243x196x1 + x243x109x1 + x243x266x1 + x243x31x1 + x243x239x1 + x243x170x1 
<= 1
x149x109x1 + x149x266x1 + x149x31x1 + x149x239x1 + x149x170x1 
<= 2
x189x266x1 + x189x31x1 + x189x239x1 + x189x170x1 
<= 1
x245x170x1 
<= 1
x176x31x1 + x176x239x1 + x176x170x1 
<= 2
x90x196x2 + x90x69x2 + x90x277x2 + x90x31x2 + x90x209x2 + x90x239x2 + x90x29x2 + x90x170x2 + x90x270x2 + x90x267x2 + x90x54x2 
<= 1
x264x196x2 + x264x69x2 + x264x277x2 + x264x31x2 + x264x209x2 + x264x239x2 + x264x29x2 + x264x170x2 + x264x270x2 + x264x267x2 + x264x54x2 
<= 1
x85x69x2 + x85x277x2 + x85x31x2 + x85x209x2 + x85x239x2 + x85x29x2 + x85x170x2 + x85x270x2 + x85x267x2 + x85x54x2 
<= 1
x22x29x2 + x22x170x2 + x22x270x2 + x22x267x2 + x22x54x2 
<= 2
x245x170x2 + x245x267x2 + x245x54x2 
<= 1
x227x170x2 + x227x54x2 
<= 1
x86x170x2 
<= 2
x197x81x3 + x197x143x3 + x197x198x3 + x197x259x3 + x197x109x3 + x197x162x3 + x197x230x3 + x197x209x3 + x197x172x3 + x197x270x3 + x197x267x3 
<= 2
x243x81x3 + x243x143x3 + x243x198x3 + x243x259x3 + x243x109x3 + x243x162x3 + x243x230x3 + x243x209x3 + x243x172x3 + x243x270x3 + x243x267x3 
<= 1
x90x143x3 + x90x109x3 + x90x162x3 + x90x230x3 + x90x209x3 + x90x172x3 + x90x270x3 + x90x267x3 
<= 1
x85x143x3 + x85x198x3 + x85x259x3 + x85x109x3 + x85x162x3 + x85x230x3 + x85x209x3 + x85x172x3 + x85x270x3 + x85x267x3 
<= 1
x135x109x3 + x135x172x3 + x135x267x3 
<= 2
x189x230x3 + x189x209x3 + x189x172x3 + x189x270x3 + x189x267x3 
<= 1
x227x172x3 
<= 1
x243x81x1 
- x81x0x1
- x81x196x1 - x81x266x1 - x81x31x1 - x81x239x1 - x81x170x1 
= 0

x197x81x3 + x243x81x3 
- x81x0x3
- x81x143x3 - x81x162x3 - x81x230x3 - x81x209x3 - x81x172x3 - x81x270x3 - x81x267x3 
= 0

x243x196x1 + x81x196x1 
- x196x0x1
- x196x266x1 - x196x31x1 - x196x239x1 - x196x170x1 
= 0
x90x196x2 + x264x196x2 
- x196x0x2
- x196x277x2 - x196x31x2 - x196x209x2 - x196x239x2 - x196x29x2 - x196x170x2 - x196x270x2 - x196x267x2 - x196x54x2 
= 0




x197x143x3 + x243x143x3 + x90x143x3 + x85x143x3 + x81x143x3 
- x143x0x3
- x143x230x3 - x143x209x3 - x143x172x3 - x143x270x3 - x143x267x3 
= 0



x197x198x3 + x243x198x3 + x85x198x3 
- x198x0x3
- x198x109x3 - x198x162x3 - x198x230x3 - x198x209x3 - x198x172x3 - x198x270x3 - x198x267x3 
= 0


x90x69x2 + x264x69x2 + x85x69x2 
- x69x0x2
- x69x277x2 - x69x31x2 - x69x209x2 - x69x239x2 - x69x29x2 - x69x170x2 - x69x270x2 - x69x267x2 - x69x54x2 
= 0




x197x259x3 + x243x259x3 + x85x259x3 
- x259x0x3
- x259x109x3 - x259x162x3 - x259x230x3 - x259x209x3 - x259x172x3 - x259x270x3 - x259x267x3 
= 0

x243x109x1 + x149x109x1 
- x109x0x1
- x109x170x1 
= 0

x197x109x3 + x243x109x3 + x90x109x3 + x85x109x3 + x135x109x3 + x198x109x3 + x259x109x3 
- x109x0x3
- x109x172x3 
= 0



x197x162x3 + x243x162x3 + x90x162x3 + x85x162x3 + x81x162x3 + x198x162x3 + x259x162x3 
- x162x0x3
- x162x230x3 - x162x209x3 - x162x172x3 - x162x270x3 - x162x267x3 
= 0

x243x266x1 + x149x266x1 + x189x266x1 + x81x266x1 + x196x266x1 
- x266x0x1
- x266x170x1 
= 0





x197x230x3 + x243x230x3 + x90x230x3 + x85x230x3 + x189x230x3 + x81x230x3 + x143x230x3 + x198x230x3 + x259x230x3 + x162x230x3 
- x230x0x3
- x230x172x3 
= 0


x90x277x2 + x264x277x2 + x85x277x2 + x196x277x2 + x69x277x2 
- x277x0x2
- x277x239x2 - x277x29x2 - x277x270x2 - x277x267x2 
= 0


x243x31x1 + x149x31x1 + x189x31x1 + x176x31x1 + x81x31x1 + x196x31x1 
- x31x0x1
- x31x239x1 
= 0
x90x31x2 + x264x31x2 + x85x31x2 + x196x31x2 + x69x31x2 
- x31x0x2
- x31x239x2 - x31x29x2 - x31x270x2 - x31x267x2 
= 0



x90x209x2 + x264x209x2 + x85x209x2 + x196x209x2 + x69x209x2 
- x209x0x2

= 0
x197x209x3 + x243x209x3 + x90x209x3 + x85x209x3 + x189x209x3 + x81x209x3 + x143x209x3 + x198x209x3 + x259x209x3 + x162x209x3 
- x209x0x3

= 0

x243x239x1 + x149x239x1 + x189x239x1 + x176x239x1 + x81x239x1 + x196x239x1 + x31x239x1 
- x239x0x1

= 0
x90x239x2 + x264x239x2 + x85x239x2 + x196x239x2 + x69x239x2 + x277x239x2 + x31x239x2 
- x239x0x2
- x239x29x2 - x239x270x2 - x239x267x2 
= 0



x90x29x2 + x264x29x2 + x85x29x2 + x22x29x2 + x196x29x2 + x69x29x2 + x277x29x2 + x31x29x2 + x239x29x2 
- x29x0x2
- x29x270x2 - x29x267x2 
= 0


x243x170x1 + x149x170x1 + x189x170x1 + x245x170x1 + x176x170x1 + x81x170x1 + x196x170x1 + x109x170x1 + x266x170x1 
- x170x0x1

= 0
x90x170x2 + x264x170x2 + x85x170x2 + x22x170x2 + x245x170x2 + x227x170x2 + x86x170x2 + x196x170x2 + x69x170x2 
- x170x0x2

= 0




x197x172x3 + x243x172x3 + x90x172x3 + x85x172x3 + x135x172x3 + x189x172x3 + x227x172x3 + x81x172x3 + x143x172x3 + x198x172x3 + x259x172x3 + x109x172x3 + x162x172x3 + x230x172x3 
- x172x0x3

= 0


x90x270x2 + x264x270x2 + x85x270x2 + x22x270x2 + x196x270x2 + x69x270x2 + x277x270x2 + x31x270x2 + x239x270x2 + x29x270x2 
- x270x0x2

= 0
x197x270x3 + x243x270x3 + x90x270x3 + x85x270x3 + x189x270x3 + x81x270x3 + x143x270x3 + x198x270x3 + x259x270x3 + x162x270x3 
- x270x0x3

= 0


x90x267x2 + x264x267x2 + x85x267x2 + x22x267x2 + x245x267x2 + x196x267x2 + x69x267x2 + x277x267x2 + x31x267x2 + x239x267x2 + x29x267x2 
- x267x0x2

= 0
x197x267x3 + x243x267x3 + x90x267x3 + x85x267x3 + x135x267x3 + x189x267x3 + x81x267x3 + x143x267x3 + x198x267x3 + x259x267x3 + x162x267x3 
- x267x0x3

= 0


x90x54x2 + x264x54x2 + x85x54x2 + x22x54x2 + x245x54x2 + x227x54x2 + x196x54x2 + x69x54x2 
- x54x0x2

= 0


1y81 - x243x81x1 = 0
1y81 - x197x81x3 - x243x81x3 = 0
1y196 - x243x196x1 - x81x196x1 = 0
1y196 - x90x196x2 - x264x196x2 = 0
2y143 - x197x143x3 - x243x143x3 - x90x143x3 - x85x143x3 - x81x143x3 = 0
2y198 - x197x198x3 - x243x198x3 - x85x198x3 = 0
2y69 - x90x69x2 - x264x69x2 - x85x69x2 = 0
2y259 - x197x259x3 - x243x259x3 - x85x259x3 = 0
1y109 - x243x109x1 - x149x109x1 = 0
1y109 - x197x109x3 - x243x109x3 - x90x109x3 - x85x109x3 - x135x109x3 - x198x109x3 - x259x109x3 = 0
2y162 - x197x162x3 - x243x162x3 - x90x162x3 - x85x162x3 - x81x162x3 - x198x162x3 - x259x162x3 = 0
2y266 - x243x266x1 - x149x266x1 - x189x266x1 - x81x266x1 - x196x266x1 = 0
2y230 - x197x230x3 - x243x230x3 - x90x230x3 - x85x230x3 - x189x230x3 - x81x230x3 - x143x230x3 - x198x230x3 - x259x230x3 - x162x230x3 = 0
2y277 - x90x277x2 - x264x277x2 - x85x277x2 - x196x277x2 - x69x277x2 = 0
1y31 - x243x31x1 - x149x31x1 - x189x31x1 - x176x31x1 - x81x31x1 - x196x31x1 = 0
1y31 - x90x31x2 - x264x31x2 - x85x31x2 - x196x31x2 - x69x31x2 = 0
1y209 - x90x209x2 - x264x209x2 - x85x209x2 - x196x209x2 - x69x209x2 = 0
1y209 - x197x209x3 - x243x209x3 - x90x209x3 - x85x209x3 - x189x209x3 - x81x209x3 - x143x209x3 - x198x209x3 - x259x209x3 - x162x209x3 = 0
1y239 - x243x239x1 - x149x239x1 - x189x239x1 - x176x239x1 - x81x239x1 - x196x239x1 - x31x239x1 = 0
1y239 - x90x239x2 - x264x239x2 - x85x239x2 - x196x239x2 - x69x239x2 - x277x239x2 - x31x239x2 = 0
2y29 - x90x29x2 - x264x29x2 - x85x29x2 - x22x29x2 - x196x29x2 - x69x29x2 - x277x29x2 - x31x29x2 - x239x29x2 = 0
1y170 - x243x170x1 - x149x170x1 - x189x170x1 - x245x170x1 - x176x170x1 - x81x170x1 - x196x170x1 - x109x170x1 - x266x170x1 = 0
1y170 - x90x170x2 - x264x170x2 - x85x170x2 - x22x170x2 - x245x170x2 - x227x170x2 - x86x170x2 - x196x170x2 - x69x170x2 = 0
2y172 - x197x172x3 - x243x172x3 - x90x172x3 - x85x172x3 - x135x172x3 - x189x172x3 - x227x172x3 - x81x172x3 - x143x172x3 - x198x172x3 - x259x172x3 - x109x172x3 - x162x172x3 - x230x172x3 = 0
1y270 - x90x270x2 - x264x270x2 - x85x270x2 - x22x270x2 - x196x270x2 - x69x270x2 - x277x270x2 - x31x270x2 - x239x270x2 - x29x270x2 = 0
1y270 - x197x270x3 - x243x270x3 - x90x270x3 - x85x270x3 - x189x270x3 - x81x270x3 - x143x270x3 - x198x270x3 - x259x270x3 - x162x270x3 = 0
1y267 - x90x267x2 - x264x267x2 - x85x267x2 - x22x267x2 - x245x267x2 - x196x267x2 - x69x267x2 - x277x267x2 - x31x267x2 - x239x267x2 - x29x267x2 = 0
1y267 - x197x267x3 - x243x267x3 - x90x267x3 - x85x267x3 - x135x267x3 - x189x267x3 - x81x267x3 - x143x267x3 - x198x267x3 - x259x267x3 - x162x267x3 = 0
2y54 - x90x54x2 - x264x54x2 - x85x54x2 - x22x54x2 - x245x54x2 - x227x54x2 - x196x54x2 - x69x54x2 = 0

s197 - s81 + 7.806309z197z81z3 <= 6.35
s197 - s143 + 7.832201z197z143z3 <= 6.35
s197 - s198 + 7.768913z197z198z3 <= 6.35
s197 - s259 + 7.893657z197z259z3 <= 6.35
s197 - s109 + 7.821116z197z109z3 <= 6.35
s197 - s162 + 7.943745z197z162z3 <= 6.35
s197 - s230 + 7.929459z197z230z3 <= 6.35
s197 - s209 + 8.016309z197z209z3 <= 6.35
s197 - s172 + 7.944747z197z172z3 <= 6.35
s197 - s270 + 8.072919z197z270z3 <= 6.35
s197 - s267 + 8.043422z197z267z3 <= 6.35
s243 - s81 + 8.039927z243z81z1 <= 6.54
s243 - s81 + 8.039927z243z81z3 <= 6.54
s243 - s196 + 8.049169z243z196z1 <= 6.54
s243 - s143 + 8.062379z243z143z3 <= 6.54
s243 - s198 + 7.872686z243z198z3 <= 6.54
s243 - s259 + 8.045501z243z259z3 <= 6.54
s243 - s109 + 7.927652z243z109z1 <= 6.54
s243 - s109 + 7.927652z243z109z3 <= 6.54
s243 - s162 + 8.091221z243z162z3 <= 6.54
s243 - s266 + 8.020720z243z266z1 <= 6.54
s243 - s230 + 8.065075z243z230z3 <= 6.54
s243 - s31 + 8.227000z243z31z1 <= 6.54
s243 - s209 + 8.172333z243z209z3 <= 6.54
s243 - s239 + 8.230799z243z239z1 <= 6.54
s243 - s170 + 8.036552z243z170z1 <= 6.54
s243 - s172 + 8.073751z243z172z3 <= 6.54
s243 - s270 + 8.249200z243z270z3 <= 6.54
s243 - s267 + 8.246674z243z267z3 <= 6.54
s90 - s196 + 8.148371z90z196z2 <= 6.78
s90 - s143 + 8.168427z90z143z3 <= 6.78
s90 - s69 + 8.254018z90z69z2 <= 6.78
s90 - s109 + 8.266113z90z109z3 <= 6.78
s90 - s162 + 8.341704z90z162z3 <= 6.78
s90 - s230 + 8.339031z90z230z3 <= 6.78
s90 - s277 + 8.412394z90z277z2 <= 6.78
s90 - s31 + 8.409212z90z31z2 <= 6.78
s90 - s209 + 8.402732z90z209z2 <= 6.78
s90 - s209 + 8.402732z90z209z3 <= 6.78
s90 - s239 + 8.418638z90z239z2 <= 6.78
s90 - s29 + 8.420914z90z29z2 <= 6.78
s90 - s170 + 8.339347z90z170z2 <= 6.78
s90 - s172 + 8.359427z90z172z3 <= 6.78
s90 - s270 + 8.439634z90z270z2 <= 6.78
s90 - s270 + 8.439634z90z270z3 <= 6.78
s90 - s267 + 8.389674z90z267z2 <= 6.78
s90 - s267 + 8.389674z90z267z3 <= 6.78
s90 - s54 + 8.163310z90z54z2 <= 6.78
s264 - s196 + 7.889029z264z196z2 <= 6.63
s264 - s69 + 7.972538z264z69z2 <= 6.63
s264 - s277 + 8.118493z264z277z2 <= 6.63
s264 - s31 + 8.120248z264z31z2 <= 6.63
s264 - s209 + 8.101764z264z209z2 <= 6.63
s264 - s239 + 8.128132z264z239z2 <= 6.63
s264 - s29 + 8.133057z264z29z2 <= 6.63
s264 - s170 + 8.032454z264z170z2 <= 6.63
s264 - s270 + 8.148746z264z270z2 <= 6.63
s264 - s267 + 8.114876z264z267z2 <= 6.63
s264 - s54 + 7.942855z264z54z2 <= 6.63
s85 - s143 + 8.203737z85z143z3 <= 6.77
s85 - s198 + 7.999391z85z198z3 <= 6.77
s85 - s69 + 8.235584z85z69z2 <= 6.77
s85 - s259 + 8.168878z85z259z3 <= 6.77
s85 - s109 + 8.054235z85z109z3 <= 6.77
s85 - s162 + 8.214356z85z162z3 <= 6.77
s85 - s230 + 8.188336z85z230z3 <= 6.77
s85 - s277 + 8.337559z85z277z2 <= 6.77
s85 - s31 + 8.352830z85z31z2 <= 6.77
s85 - s209 + 8.295674z85z209z2 <= 6.77
s85 - s209 + 8.295674z85z209z3 <= 6.77
s85 - s239 + 8.356124z85z239z2 <= 6.77
s85 - s29 + 8.367416z85z29z2 <= 6.77
s85 - s170 + 8.161050z85z170z2 <= 6.77
s85 - s172 + 8.197478z85z172z3 <= 6.77
s85 - s270 + 8.374194z85z270z2 <= 6.77
s85 - s270 + 8.374194z85z270z3 <= 6.77
s85 - s267 + 8.376753z85z267z2 <= 6.77
s85 - s267 + 8.376753z85z267z3 <= 6.77
s85 - s54 + 8.269399z85z54z2 <= 6.77
s135 - s109 + 8.456089z135z109z3 <= 7.15
s135 - s172 + 8.604265z135z172z3 <= 7.15
s135 - s267 + 8.794577z135z267z3 <= 7.15
s149 - s109 + 8.377710z149z109z1 <= 7.06
s149 - s266 + 8.417583z149z266z1 <= 7.06
s149 - s31 + 8.524451z149z31z1 <= 7.06
s149 - s239 + 8.532239z149z239z1 <= 7.06
s149 - s170 + 8.440840z149z170z1 <= 7.06
s189 - s266 + 8.512028z189z266z1 <= 6.96
s189 - s230 + 8.530284z189z230z3 <= 6.96
s189 - s31 + 8.583007z189z31z1 <= 6.96
s189 - s209 + 8.585017z189z209z3 <= 6.96
s189 - s239 + 8.593241z189z239z1 <= 6.96
s189 - s170 + 8.535448z189z170z1 <= 6.96
s189 - s172 + 8.552146z189z172z3 <= 6.96
s189 - s270 + 8.614318z189z270z3 <= 6.96
s189 - s267 + 8.556970z189z267z3 <= 6.96
s22 - s29 + 8.691491z22z29z2 <= 7.28
s22 - s170 + 8.621931z22z170z2 <= 7.28
s22 - s270 + 8.708071z22z270z2 <= 7.28
s22 - s267 + 8.672319z22z267z2 <= 7.28
s22 - s54 + 8.522984z22z54z2 <= 7.28
s245 - s170 + 8.598467z245z170z1 <= 7.38
s245 - s170 + 8.598467z245z170z2 <= 7.38
s245 - s267 + 8.763241z245z267z2 <= 7.38
s245 - s54 + 8.712966z245z54z2 <= 7.38
s227 - s170 + 8.623209z227z170z2 <= 7.41
s227 - s172 + 8.654902z227z172z3 <= 7.41
s227 - s54 + 8.814533z227z54z2 <= 7.41
s176 - s31 + 8.586050z176z31z1 <= 7.21
s176 - s239 + 8.596733z176z239z1 <= 7.21
s176 - s170 + 8.591285z176z170z1 <= 7.21
s86 - s170 + 8.629913z86z170z2 <= 7.38
s81 - s196 + 9.149428z81z196z1 <= 8.14
s81 - s143 + 9.166667z81z143z3 <= 8.14
s81 - s162 + 9.432195z81z162z3 <= 8.14
s81 - s266 + 9.472132z81z266z1 <= 8.14
s81 - s230 + 9.458399z81z230z3 <= 8.14
s81 - s31 + 9.423236z81z31z1 <= 8.14
s81 - s209 + 9.456158z81z209z3 <= 8.14
s81 - s239 + 9.435297z81z239z1 <= 8.14
s81 - s170 + 9.494339z81z170z1 <= 8.14
s81 - s172 + 9.485768z81z172z3 <= 8.14
s81 - s270 + 9.456087z81z270z3 <= 8.14
s81 - s267 + 9.388909z81z267z3 <= 8.14
s196 - s266 + 9.527573z196z266z1 <= 8.19
s196 - s277 + 9.486048z196z277z2 <= 8.19
s196 - s31 + 9.470396z196z31z1 <= 8.19
s196 - s31 + 9.470396z196z31z2 <= 8.19
s196 - s209 + 9.506719z196z209z2 <= 8.19
s196 - s239 + 9.482726z196z239z1 <= 8.19
s196 - s239 + 9.482726z196z239z2 <= 8.19
s196 - s29 + 9.479213z196z29z2 <= 8.19
s196 - s170 + 9.549567z196z170z1 <= 8.19
s196 - s170 + 9.549567z196z170z2 <= 8.19
s196 - s270 + 9.503404z196z270z2 <= 8.19
s196 - s267 + 9.433310z196z267z2 <= 8.19
s196 - s54 + 9.296666z196z54z2 <= 8.19
s143 - s230 + 9.530483z143z230z3 <= 8.22
s143 - s209 + 9.518812z143z209z3 <= 8.22
s143 - s172 + 9.557968z143z172z3 <= 8.22
s143 - s270 + 9.512727z143z270z3 <= 8.22
s143 - s267 + 9.442512z143z267z3 <= 8.22
s198 - s109 + 9.274975z198z109z3 <= 8.22
s198 - s162 + 9.462670z198z162z3 <= 8.22
s198 - s230 + 9.425373z198z230z3 <= 8.22
s198 - s209 + 9.546939z198z209z3 <= 8.22
s198 - s172 + 9.427632z198z172z3 <= 8.22
s198 - s270 + 9.643530z198z270z3 <= 8.22
s198 - s267 + 9.682362z198z267z3 <= 8.22
s69 - s277 + 9.432047z69z277z2 <= 8.26
s69 - s31 + 9.418465z69z31z2 <= 8.26
s69 - s209 + 9.457878z69z209z2 <= 8.26
s69 - s239 + 9.429968z69z239z2 <= 8.26
s69 - s29 + 9.428655z69z29z2 <= 8.26
s69 - s170 + 9.541977z69z170z2 <= 8.26
s69 - s270 + 9.450905z69z270z2 <= 8.26
s69 - s267 + 9.403913z69z267z2 <= 8.26
s69 - s54 + 9.465913z69z54z2 <= 8.26
s259 - s109 + 9.434484z259z109z3 <= 8.26
s259 - s162 + 9.310772z259z162z3 <= 8.26
s259 - s230 + 9.323246z259z230z3 <= 8.26
s259 - s209 + 9.386843z259z209z3 <= 8.26
s259 - s172 + 9.350677z259z172z3 <= 8.26
s259 - s270 + 9.474684z259z270z3 <= 8.26
s259 - s267 + 9.521364z259z267z3 <= 8.26
s109 - s170 + 9.584115z109z170z1 <= 8.47
s109 - s172 + 9.626915z109z172z3 <= 8.47
s162 - s230 + 9.528073z162z230z3 <= 8.48
s162 - s209 + 9.564327z162z209z3 <= 8.48
s162 - s172 + 9.549602z162z172z3 <= 8.48
s162 - s270 + 9.665352z162z270z3 <= 8.48
s162 - s267 + 9.733420z162z267z3 <= 8.48
s266 - s170 + 9.584038z266z170z1 <= 8.56
s230 - s172 + 9.597487z230z172z3 <= 8.57
s277 - s239 + 9.669815z277z239z2 <= 8.64
s277 - s29 + 9.690772z277z29z2 <= 8.64
s277 - s270 + 9.678873z277z270z2 <= 8.64
s277 - s267 + 9.773334z277z267z2 <= 8.64
s31 - s239 + 9.664907z31z239z1 <= 8.65
s31 - s239 + 9.664907z31z239z2 <= 8.65
s31 - s29 + 9.664907z31z29z2 <= 8.65
s31 - s270 + 9.683332z31z270z2 <= 8.65
s31 - s267 + 9.743570z31z267z2 <= 8.65
s239 - s29 + 9.691082z239z29z2 <= 8.67
s239 - s270 + 9.691082z239z270z2 <= 8.67
s239 - s267 + 9.777496z239z267z2 <= 8.67
s29 - s270 + 9.729815z29z270z2 <= 8.70
s29 - s267 + 9.788944z29z267z2 <= 8.70

x197x81x3 - 1z197z81z3 <= 0
x197x143x3 - 2z197z143z3 <= 0
x197x198x3 - 2z197z198z3 <= 0
x197x259x3 - 2z197z259z3 <= 0
x197x109x3 - 1z197z109z3 <= 0
x197x162x3 - 2z197z162z3 <= 0
x197x230x3 - 2z197z230z3 <= 0
x197x209x3 - 1z197z209z3 <= 0
x197x172x3 - 2z197z172z3 <= 0
x197x270x3 - 1z197z270z3 <= 0
x197x267x3 - 1z197z267z3 <= 0
x243x81x1 - 1z243z81z1 <= 0
x243x81x3 - 1z243z81z3 <= 0
x243x196x1 - 1z243z196z1 <= 0
x243x143x3 - 2z243z143z3 <= 0
x243x198x3 - 2z243z198z3 <= 0
x243x259x3 - 2z243z259z3 <= 0
x243x109x1 - 1z243z109z1 <= 0
x243x109x3 - 1z243z109z3 <= 0
x243x162x3 - 2z243z162z3 <= 0
x243x266x1 - 2z243z266z1 <= 0
x243x230x3 - 2z243z230z3 <= 0
x243x31x1 - 1z243z31z1 <= 0
x243x209x3 - 1z243z209z3 <= 0
x243x239x1 - 1z243z239z1 <= 0
x243x170x1 - 1z243z170z1 <= 0
x243x172x3 - 2z243z172z3 <= 0
x243x270x3 - 1z243z270z3 <= 0
x243x267x3 - 1z243z267z3 <= 0
x90x196x2 - 1z90z196z2 <= 0
x90x143x3 - 2z90z143z3 <= 0
x90x69x2 - 2z90z69z2 <= 0
x90x109x3 - 1z90z109z3 <= 0
x90x162x3 - 2z90z162z3 <= 0
x90x230x3 - 2z90z230z3 <= 0
x90x277x2 - 2z90z277z2 <= 0
x90x31x2 - 1z90z31z2 <= 0
x90x209x2 - 1z90z209z2 <= 0
x90x209x3 - 1z90z209z3 <= 0
x90x239x2 - 1z90z239z2 <= 0
x90x29x2 - 2z90z29z2 <= 0
x90x170x2 - 1z90z170z2 <= 0
x90x172x3 - 2z90z172z3 <= 0
x90x270x2 - 1z90z270z2 <= 0
x90x270x3 - 1z90z270z3 <= 0
x90x267x2 - 1z90z267z2 <= 0
x90x267x3 - 1z90z267z3 <= 0
x90x54x2 - 2z90z54z2 <= 0
x264x196x2 - 1z264z196z2 <= 0
x264x69x2 - 2z264z69z2 <= 0
x264x277x2 - 2z264z277z2 <= 0
x264x31x2 - 1z264z31z2 <= 0
x264x209x2 - 1z264z209z2 <= 0
x264x239x2 - 1z264z239z2 <= 0
x264x29x2 - 2z264z29z2 <= 0
x264x170x2 - 1z264z170z2 <= 0
x264x270x2 - 1z264z270z2 <= 0
x264x267x2 - 1z264z267z2 <= 0
x264x54x2 - 2z264z54z2 <= 0
x85x143x3 - 2z85z143z3 <= 0
x85x198x3 - 2z85z198z3 <= 0
x85x69x2 - 2z85z69z2 <= 0
x85x259x3 - 2z85z259z3 <= 0
x85x109x3 - 1z85z109z3 <= 0
x85x162x3 - 2z85z162z3 <= 0
x85x230x3 - 2z85z230z3 <= 0
x85x277x2 - 2z85z277z2 <= 0
x85x31x2 - 1z85z31z2 <= 0
x85x209x2 - 1z85z209z2 <= 0
x85x209x3 - 1z85z209z3 <= 0
x85x239x2 - 1z85z239z2 <= 0
x85x29x2 - 2z85z29z2 <= 0
x85x170x2 - 1z85z170z2 <= 0
x85x172x3 - 2z85z172z3 <= 0
x85x270x2 - 1z85z270z2 <= 0
x85x270x3 - 1z85z270z3 <= 0
x85x267x2 - 1z85z267z2 <= 0
x85x267x3 - 1z85z267z3 <= 0
x85x54x2 - 2z85z54z2 <= 0
x135x109x3 - 1z135z109z3 <= 0
x135x172x3 - 2z135z172z3 <= 0
x135x267x3 - 1z135z267z3 <= 0
x149x109x1 - 1z149z109z1 <= 0
x149x266x1 - 2z149z266z1 <= 0
x149x31x1 - 1z149z31z1 <= 0
x149x239x1 - 1z149z239z1 <= 0
x149x170x1 - 1z149z170z1 <= 0
x189x266x1 - 2z189z266z1 <= 0
x189x230x3 - 2z189z230z3 <= 0
x189x31x1 - 1z189z31z1 <= 0
x189x209x3 - 1z189z209z3 <= 0
x189x239x1 - 1z189z239z1 <= 0
x189x170x1 - 1z189z170z1 <= 0
x189x172x3 - 2z189z172z3 <= 0
x189x270x3 - 1z189z270z3 <= 0
x189x267x3 - 1z189z267z3 <= 0
x22x29x2 - 2z22z29z2 <= 0
x22x170x2 - 1z22z170z2 <= 0
x22x270x2 - 1z22z270z2 <= 0
x22x267x2 - 1z22z267z2 <= 0
x22x54x2 - 2z22z54z2 <= 0
x245x170x1 - 1z245z170z1 <= 0
x245x170x2 - 1z245z170z2 <= 0
x245x267x2 - 1z245z267z2 <= 0
x245x54x2 - 2z245z54z2 <= 0
x227x170x2 - 1z227z170z2 <= 0
x227x172x3 - 2z227z172z3 <= 0
x227x54x2 - 2z227z54z2 <= 0
x176x31x1 - 1z176z31z1 <= 0
x176x239x1 - 1z176z239z1 <= 0
x176x170x1 - 1z176z170z1 <= 0
x86x170x2 - 1z86z170z2 <= 0
x81x196x1 - 1z81z196z1 <= 0
x81x143x3 - 2z81z143z3 <= 0
x81x162x3 - 2z81z162z3 <= 0
x81x266x1 - 2z81z266z1 <= 0
x81x230x3 - 2z81z230z3 <= 0
x81x31x1 - 1z81z31z1 <= 0
x81x209x3 - 1z81z209z3 <= 0
x81x239x1 - 1z81z239z1 <= 0
x81x170x1 - 1z81z170z1 <= 0
x81x172x3 - 2z81z172z3 <= 0
x81x270x3 - 1z81z270z3 <= 0
x81x267x3 - 1z81z267z3 <= 0
x81x0x1 <= 1
x81x0x3 <= 1
x196x266x1 - 2z196z266z1 <= 0
x196x277x2 - 2z196z277z2 <= 0
x196x31x1 - 1z196z31z1 <= 0
x196x31x2 - 1z196z31z2 <= 0
x196x209x2 - 1z196z209z2 <= 0
x196x239x1 - 1z196z239z1 <= 0
x196x239x2 - 1z196z239z2 <= 0
x196x29x2 - 2z196z29z2 <= 0
x196x170x1 - 1z196z170z1 <= 0
x196x170x2 - 1z196z170z2 <= 0
x196x270x2 - 1z196z270z2 <= 0
x196x267x2 - 1z196z267z2 <= 0
x196x54x2 - 2z196z54z2 <= 0
x196x0x1 <= 1
x196x0x2 <= 1
x143x230x3 - 2z143z230z3 <= 0
x143x209x3 - 1z143z209z3 <= 0
x143x172x3 - 2z143z172z3 <= 0
x143x270x3 - 1z143z270z3 <= 0
x143x267x3 - 1z143z267z3 <= 0
x143x0x3 <= 2
x198x109x3 - 1z198z109z3 <= 0
x198x162x3 - 2z198z162z3 <= 0
x198x230x3 - 2z198z230z3 <= 0
x198x209x3 - 1z198z209z3 <= 0
x198x172x3 - 2z198z172z3 <= 0
x198x270x3 - 1z198z270z3 <= 0
x198x267x3 - 1z198z267z3 <= 0
x198x0x3 <= 2
x69x277x2 - 2z69z277z2 <= 0
x69x31x2 - 1z69z31z2 <= 0
x69x209x2 - 1z69z209z2 <= 0
x69x239x2 - 1z69z239z2 <= 0
x69x29x2 - 2z69z29z2 <= 0
x69x170x2 - 1z69z170z2 <= 0
x69x270x2 - 1z69z270z2 <= 0
x69x267x2 - 1z69z267z2 <= 0
x69x54x2 - 2z69z54z2 <= 0
x69x0x2 <= 2
x259x109x3 - 1z259z109z3 <= 0
x259x162x3 - 2z259z162z3 <= 0
x259x230x3 - 2z259z230z3 <= 0
x259x209x3 - 1z259z209z3 <= 0
x259x172x3 - 2z259z172z3 <= 0
x259x270x3 - 1z259z270z3 <= 0
x259x267x3 - 1z259z267z3 <= 0
x259x0x3 <= 2
x109x170x1 - 1z109z170z1 <= 0
x109x172x3 - 2z109z172z3 <= 0
x109x0x1 <= 1
x109x0x3 <= 1
x162x230x3 - 2z162z230z3 <= 0
x162x209x3 - 1z162z209z3 <= 0
x162x172x3 - 2z162z172z3 <= 0
x162x270x3 - 1z162z270z3 <= 0
x162x267x3 - 1z162z267z3 <= 0
x162x0x3 <= 2
x266x170x1 - 1z266z170z1 <= 0
x266x0x1 <= 2
x230x172x3 - 2z230z172z3 <= 0
x230x0x3 <= 2
x277x239x2 - 1z277z239z2 <= 0
x277x29x2 - 2z277z29z2 <= 0
x277x270x2 - 1z277z270z2 <= 0
x277x267x2 - 1z277z267z2 <= 0
x277x0x2 <= 2
x31x239x1 - 1z31z239z1 <= 0
x31x239x2 - 1z31z239z2 <= 0
x31x29x2 - 2z31z29z2 <= 0
x31x270x2 - 1z31z270z2 <= 0
x31x267x2 - 1z31z267z2 <= 0
x31x0x1 <= 1
x31x0x2 <= 1
x209x0x2 <= 1
x209x0x3 <= 1
x239x29x2 - 2z239z29z2 <= 0
x239x270x2 - 1z239z270z2 <= 0
x239x267x2 - 1z239z267z2 <= 0
x239x0x1 <= 1
x239x0x2 <= 1
x29x270x2 - 1z29z270z2 <= 0
x29x267x2 - 1z29z267z2 <= 0
x29x0x2 <= 2
x170x0x1 <= 1
x170x0x2 <= 1
x172x0x3 <= 2
x270x0x2 <= 1
x270x0x3 <= 1
x267x0x2 <= 1
x267x0x3 <= 1
x54x0x2 <= 2

s81 - 6.00z197z81z3 >= 0
s81 - 6.00z243z81z1 >= 0
s81 - 6.00z243z81z3 >= 0
s196 - 6.00z243z196z1 >= 0
s196 - 6.00z90z196z2 >= 0
s196 - 6.00z264z196z2 >= 0
s196 - 6.00z81z196z1 >= 0
s143 - 6.00z197z143z3 >= 0
s143 - 6.00z243z143z3 >= 0
s143 - 6.00z90z143z3 >= 0
s143 - 6.00z85z143z3 >= 0
s143 - 6.00z81z143z3 >= 0
s198 - 6.00z197z198z3 >= 0
s198 - 6.00z243z198z3 >= 0
s198 - 6.00z85z198z3 >= 0
s69 - 6.00z90z69z2 >= 0
s69 - 6.00z264z69z2 >= 0
s69 - 6.00z85z69z2 >= 0
s259 - 6.00z197z259z3 >= 0
s259 - 6.00z243z259z3 >= 0
s259 - 6.00z85z259z3 >= 0
s109 - 6.00z197z109z3 >= 0
s109 - 6.00z243z109z1 >= 0
s109 - 6.00z243z109z3 >= 0
s109 - 6.00z90z109z3 >= 0
s109 - 6.00z85z109z3 >= 0
s109 - 6.00z135z109z3 >= 0
s109 - 6.00z149z109z1 >= 0
s109 - 6.00z198z109z3 >= 0
s109 - 6.00z259z109z3 >= 0
s162 - 6.00z197z162z3 >= 0
s162 - 6.00z243z162z3 >= 0
s162 - 6.00z90z162z3 >= 0
s162 - 6.00z85z162z3 >= 0
s162 - 6.00z81z162z3 >= 0
s162 - 6.00z198z162z3 >= 0
s162 - 6.00z259z162z3 >= 0
s266 - 6.00z243z266z1 >= 0
s266 - 6.00z149z266z1 >= 0
s266 - 6.00z189z266z1 >= 0
s266 - 6.00z81z266z1 >= 0
s266 - 6.00z196z266z1 >= 0
s230 - 6.00z197z230z3 >= 0
s230 - 6.00z243z230z3 >= 0
s230 - 6.00z90z230z3 >= 0
s230 - 6.00z85z230z3 >= 0
s230 - 6.00z189z230z3 >= 0
s230 - 6.00z81z230z3 >= 0
s230 - 6.00z143z230z3 >= 0
s230 - 6.00z198z230z3 >= 0
s230 - 6.00z259z230z3 >= 0
s230 - 6.00z162z230z3 >= 0
s277 - 6.00z90z277z2 >= 0
s277 - 6.00z264z277z2 >= 0
s277 - 6.00z85z277z2 >= 0
s277 - 6.00z196z277z2 >= 0
s277 - 6.00z69z277z2 >= 0
s31 - 6.00z243z31z1 >= 0
s31 - 6.00z90z31z2 >= 0
s31 - 6.00z264z31z2 >= 0
s31 - 6.00z85z31z2 >= 0
s31 - 6.00z149z31z1 >= 0
s31 - 6.00z189z31z1 >= 0
s31 - 6.00z176z31z1 >= 0
s31 - 6.00z81z31z1 >= 0
s31 - 6.00z196z31z1 >= 0
s31 - 6.00z196z31z2 >= 0
s31 - 6.00z69z31z2 >= 0
s209 - 6.00z197z209z3 >= 0
s209 - 6.00z243z209z3 >= 0
s209 - 6.00z90z209z2 >= 0
s209 - 6.00z90z209z3 >= 0
s209 - 6.00z264z209z2 >= 0
s209 - 6.00z85z209z2 >= 0
s209 - 6.00z85z209z3 >= 0
s209 - 6.00z189z209z3 >= 0
s209 - 6.00z81z209z3 >= 0
s209 - 6.00z196z209z2 >= 0
s209 - 6.00z143z209z3 >= 0
s209 - 6.00z198z209z3 >= 0
s209 - 6.00z69z209z2 >= 0
s209 - 6.00z259z209z3 >= 0
s209 - 6.00z162z209z3 >= 0
s239 - 6.00z243z239z1 >= 0
s239 - 6.00z90z239z2 >= 0
s239 - 6.00z264z239z2 >= 0
s239 - 6.00z85z239z2 >= 0
s239 - 6.00z149z239z1 >= 0
s239 - 6.00z189z239z1 >= 0
s239 - 6.00z176z239z1 >= 0
s239 - 6.00z81z239z1 >= 0
s239 - 6.00z196z239z1 >= 0
s239 - 6.00z196z239z2 >= 0
s239 - 6.00z69z239z2 >= 0
s239 - 6.00z277z239z2 >= 0
s239 - 6.00z31z239z1 >= 0
s239 - 6.00z31z239z2 >= 0
s29 - 6.00z90z29z2 >= 0
s29 - 6.00z264z29z2 >= 0
s29 - 6.00z85z29z2 >= 0
s29 - 6.00z22z29z2 >= 0
s29 - 6.00z196z29z2 >= 0
s29 - 6.00z69z29z2 >= 0
s29 - 6.00z277z29z2 >= 0
s29 - 6.00z31z29z2 >= 0
s29 - 6.00z239z29z2 >= 0
s170 - 6.00z243z170z1 >= 0
s170 - 6.00z90z170z2 >= 0
s170 - 6.00z264z170z2 >= 0
s170 - 6.00z85z170z2 >= 0
s170 - 6.00z149z170z1 >= 0
s170 - 6.00z189z170z1 >= 0
s170 - 6.00z22z170z2 >= 0
s170 - 6.00z245z170z1 >= 0
s170 - 6.00z245z170z2 >= 0
s170 - 6.00z227z170z2 >= 0
s170 - 6.00z176z170z1 >= 0
s170 - 6.00z86z170z2 >= 0
s170 - 6.00z81z170z1 >= 0
s170 - 6.00z196z170z1 >= 0
s170 - 6.00z196z170z2 >= 0
s170 - 6.00z69z170z2 >= 0
s170 - 6.00z109z170z1 >= 0
s170 - 6.00z266z170z1 >= 0
s172 - 6.00z197z172z3 >= 0
s172 - 6.00z243z172z3 >= 0
s172 - 6.00z90z172z3 >= 0
s172 - 6.00z85z172z3 >= 0
s172 - 6.00z135z172z3 >= 0
s172 - 6.00z189z172z3 >= 0
s172 - 6.00z227z172z3 >= 0
s172 - 6.00z81z172z3 >= 0
s172 - 6.00z143z172z3 >= 0
s172 - 6.00z198z172z3 >= 0
s172 - 6.00z259z172z3 >= 0
s172 - 6.00z109z172z3 >= 0
s172 - 6.00z162z172z3 >= 0
s172 - 6.00z230z172z3 >= 0
s270 - 6.00z197z270z3 >= 0
s270 - 6.00z243z270z3 >= 0
s270 - 6.00z90z270z2 >= 0
s270 - 6.00z90z270z3 >= 0
s270 - 6.00z264z270z2 >= 0
s270 - 6.00z85z270z2 >= 0
s270 - 6.00z85z270z3 >= 0
s270 - 6.00z189z270z3 >= 0
s270 - 6.00z22z270z2 >= 0
s270 - 6.00z81z270z3 >= 0
s270 - 6.00z196z270z2 >= 0
s270 - 6.00z143z270z3 >= 0
s270 - 6.00z198z270z3 >= 0
s270 - 6.00z69z270z2 >= 0
s270 - 6.00z259z270z3 >= 0
s270 - 6.00z162z270z3 >= 0
s270 - 6.00z277z270z2 >= 0
s270 - 6.00z31z270z2 >= 0
s270 - 6.00z239z270z2 >= 0
s270 - 6.00z29z270z2 >= 0
s267 - 6.00z197z267z3 >= 0
s267 - 6.00z243z267z3 >= 0
s267 - 6.00z90z267z2 >= 0
s267 - 6.00z90z267z3 >= 0
s267 - 6.00z264z267z2 >= 0
s267 - 6.00z85z267z2 >= 0
s267 - 6.00z85z267z3 >= 0
s267 - 6.00z135z267z3 >= 0
s267 - 6.00z189z267z3 >= 0
s267 - 6.00z22z267z2 >= 0
s267 - 6.00z245z267z2 >= 0
s267 - 6.00z81z267z3 >= 0
s267 - 6.00z196z267z2 >= 0
s267 - 6.00z143z267z3 >= 0
s267 - 6.00z198z267z3 >= 0
s267 - 6.00z69z267z2 >= 0
s267 - 6.00z259z267z3 >= 0
s267 - 6.00z162z267z3 >= 0
s267 - 6.00z277z267z2 >= 0
s267 - 6.00z31z267z2 >= 0
s267 - 6.00z239z267z2 >= 0
s267 - 6.00z29z267z2 >= 0
s54 - 6.00z90z54z2 >= 0
s54 - 6.00z264z54z2 >= 0
s54 - 6.00z85z54z2 >= 0
s54 - 6.00z22z54z2 >= 0
s54 - 6.00z245z54z2 >= 0
s54 - 6.00z227z54z2 >= 0
s54 - 6.00z196z54z2 >= 0
s54 - 6.00z69z54z2 >= 0

Bounds
s197 = 6.345488
s243 = 6.544391
s90 = 6.775038
s264 = 6.625295
s85 = 6.767491
s135 = 7.150148
s149 = 7.063245
s189 = 6.964874
s22 = 7.276227
s245 = 7.375656
s227 = 7.413978
s176 = 7.206577
s86 = 7.381809
s220 = 7.879854
7.140000 <= s81 <= 8.140000
7.190000 <= s196 <= 8.190000
7.220000 <= s143 <= 8.220000
7.220000 <= s198 <= 8.220000
7.260000 <= s69 <= 8.260000
7.260000 <= s259 <= 8.260000
7.470000 <= s109 <= 8.470000
7.480000 <= s162 <= 8.480000
7.560000 <= s266 <= 8.560000
7.570000 <= s230 <= 8.570000
7.640000 <= s277 <= 8.640000
7.650000 <= s31 <= 8.650000
7.650000 <= s209 <= 8.650000
7.670000 <= s239 <= 8.670000
7.700000 <= s29 <= 8.700000
7.720000 <= s170 <= 8.720000
7.730000 <= s172 <= 8.730000
7.740000 <= s270 <= 8.740000
7.800000 <= s267 <= 8.800000
7.850000 <= s54 <= 8.850000

General
x197x81x3 x197x143x3 x197x198x3 x197x259x3 x197x109x3 x197x162x3 x197x230x3 x197x209x3 x197x172x3 x197x270x3 x197x267x3 
x243x81x1 x243x81x3 x243x196x1 x243x143x3 x243x198x3 x243x259x3 x243x109x1 x243x109x3 x243x162x3 x243x266x1 x243x230x3 x243x31x1 x243x209x3 x243x239x1 x243x170x1 x243x172x3 x243x270x3 x243x267x3 
x90x196x2 x90x143x3 x90x69x2 x90x109x3 x90x162x3 x90x230x3 x90x277x2 x90x31x2 x90x209x2 x90x209x3 x90x239x2 x90x29x2 x90x170x2 x90x172x3 x90x270x2 x90x270x3 x90x267x2 x90x267x3 x90x54x2 
x264x196x2 x264x69x2 x264x277x2 x264x31x2 x264x209x2 x264x239x2 x264x29x2 x264x170x2 x264x270x2 x264x267x2 x264x54x2 
x85x143x3 x85x198x3 x85x69x2 x85x259x3 x85x109x3 x85x162x3 x85x230x3 x85x277x2 x85x31x2 x85x209x2 x85x209x3 x85x239x2 x85x29x2 x85x170x2 x85x172x3 x85x270x2 x85x270x3 x85x267x2 x85x267x3 x85x54x2 
x135x109x3 x135x172x3 x135x267x3 
x149x109x1 x149x266x1 x149x31x1 x149x239x1 x149x170x1 
x189x266x1 x189x230x3 x189x31x1 x189x209x3 x189x239x1 x189x170x1 x189x172x3 x189x270x3 x189x267x3 
x22x29x2 x22x170x2 x22x270x2 x22x267x2 x22x54x2 
x245x170x1 x245x170x2 x245x267x2 x245x54x2 
x227x170x2 x227x172x3 x227x54x2 
x176x31x1 x176x239x1 x176x170x1 
x86x170x2 

x81x196x1 x81x143x3 x81x162x3 x81x266x1 x81x230x3 x81x31x1 x81x209x3 x81x239x1 x81x170x1 x81x172x3 x81x270x3 x81x267x3 x81x0x1 x81x0x3 
x196x266x1 x196x277x2 x196x31x1 x196x31x2 x196x209x2 x196x239x1 x196x239x2 x196x29x2 x196x170x1 x196x170x2 x196x270x2 x196x267x2 x196x54x2 x196x0x1 x196x0x2 
x143x230x3 x143x209x3 x143x172x3 x143x270x3 x143x267x3 x143x0x3 
x198x109x3 x198x162x3 x198x230x3 x198x209x3 x198x172x3 x198x270x3 x198x267x3 x198x0x3 
x69x277x2 x69x31x2 x69x209x2 x69x239x2 x69x29x2 x69x170x2 x69x270x2 x69x267x2 x69x54x2 x69x0x2 
x259x109x3 x259x162x3 x259x230x3 x259x209x3 x259x172x3 x259x270x3 x259x267x3 x259x0x3 
x109x170x1 x109x172x3 x109x0x1 x109x0x3 
x162x230x3 x162x209x3 x162x172x3 x162x270x3 x162x267x3 x162x0x3 
x266x170x1 x266x0x1 
x230x172x3 x230x0x3 
x277x239x2 x277x29x2 x277x270x2 x277x267x2 x277x0x2 
x31x239x1 x31x239x2 x31x29x2 x31x270x2 x31x267x2 x31x0x1 x31x0x2 
x209x0x2 x209x0x3 
x239x29x2 x239x270x2 x239x267x2 x239x0x1 x239x0x2 
x29x270x2 x29x267x2 x29x0x2 
x170x0x1 x170x0x2 
x172x0x3 
x270x0x2 x270x0x3 
x267x0x2 x267x0x3 
x54x0x2 

Binaries
y81 y196 y143 y198 y69 y259 y109 y162 y266 y230 y277 y31 y209 y239 y29 y170 y172 y270 y267 y54 
z197z81z3 z197z143z3 z197z198z3 z197z259z3 z197z109z3 z197z162z3 z197z230z3 z197z209z3 z197z172z3 z197z270z3 z197z267z3 
z243z81z1 z243z81z3 z243z196z1 z243z143z3 z243z198z3 z243z259z3 z243z109z1 z243z109z3 z243z162z3 z243z266z1 z243z230z3 z243z31z1 z243z209z3 z243z239z1 z243z170z1 z243z172z3 z243z270z3 z243z267z3 
z90z196z2 z90z143z3 z90z69z2 z90z109z3 z90z162z3 z90z230z3 z90z277z2 z90z31z2 z90z209z2 z90z209z3 z90z239z2 z90z29z2 z90z170z2 z90z172z3 z90z270z2 z90z270z3 z90z267z2 z90z267z3 z90z54z2 
z264z196z2 z264z69z2 z264z277z2 z264z31z2 z264z209z2 z264z239z2 z264z29z2 z264z170z2 z264z270z2 z264z267z2 z264z54z2 
z85z143z3 z85z198z3 z85z69z2 z85z259z3 z85z109z3 z85z162z3 z85z230z3 z85z277z2 z85z31z2 z85z209z2 z85z209z3 z85z239z2 z85z29z2 z85z170z2 z85z172z3 z85z270z2 z85z270z3 z85z267z2 z85z267z3 z85z54z2 
z135z109z3 z135z172z3 z135z267z3 
z149z109z1 z149z266z1 z149z31z1 z149z239z1 z149z170z1 
z189z266z1 z189z230z3 z189z31z1 z189z209z3 z189z239z1 z189z170z1 z189z172z3 z189z270z3 z189z267z3 
z22z29z2 z22z170z2 z22z270z2 z22z267z2 z22z54z2 
z245z170z1 z245z170z2 z245z267z2 z245z54z2 
z227z170z2 z227z172z3 z227z54z2 
z176z31z1 z176z239z1 z176z170z1 
z86z170z2 

z81z196z1 z81z143z3 z81z162z3 z81z266z1 z81z230z3 z81z31z1 z81z209z3 z81z239z1 z81z170z1 z81z172z3 z81z270z3 z81z267z3 
z196z266z1 z196z277z2 z196z31z1 z196z31z2 z196z209z2 z196z239z1 z196z239z2 z196z29z2 z196z170z1 z196z170z2 z196z270z2 z196z267z2 z196z54z2 
z143z230z3 z143z209z3 z143z172z3 z143z270z3 z143z267z3 
z198z109z3 z198z162z3 z198z230z3 z198z209z3 z198z172z3 z198z270z3 z198z267z3 
z69z277z2 z69z31z2 z69z209z2 z69z239z2 z69z29z2 z69z170z2 z69z270z2 z69z267z2 z69z54z2 
z259z109z3 z259z162z3 z259z230z3 z259z209z3 z259z172z3 z259z270z3 z259z267z3 
z109z170z1 z109z172z3 
z162z230z3 z162z209z3 z162z172z3 z162z270z3 z162z267z3 
z266z170z1 
z230z172z3 
z277z239z2 z277z29z2 z277z270z2 z277z267z2 
z31z239z1 z31z239z2 z31z29z2 z31z270z2 z31z267z2 

z239z29z2 z239z270z2 z239z267z2 
z29z270z2 z29z267z2 






End